s td 98 9 111
b 1 44 68 87 110
b 2 69 89 110
b 3 80 108 110
b 4 27 44 87 110
b 5 27 93 95 103
b 6 27 83 93 95
b 7 16 48 73 96
b 8 9 72 89 110
b 9 7 22 59 78 86
b 10 8 48 73 88
b 11 73 94 96 111
b 12 8 20 73 107
b 13 1 21 22 73 86 92 95 110
b 14 2 22 48 59 73 86 95 96 110
b 15 3 22 31 59 73 86 95 96 110
b 16 3 22 31 59 73 86 90 95 110
b 17 22 31 59 73 86 90 95 106 110
b 18 7 22 59 73 86 90 95 106 110
b 19 7 13 22 73 86 95 106 110
b 20 7 13 22 86 95 104 110
b 21 22 24 86 95 104
b 22 22 67 86 95 106
b 23 22 31 86 95 98 106
b 24 73 90 106 109 110
b 25 3 19 22 86 90 95
b 26 29 31 73 90 110
b 27 3 22 31 61 73 86 95 96 110
b 28 3 55 61 73 95 96 110
b 29 3 53 55 73 110
b 30 3 31 73 85 110
b 31 2 48 59 65 73 95 96 110
b 32 2 8 48 65 73 110
b 33 2 8 20 73 110
b 34 2 22 48 73 77 86 95 96 110
b 35 2 22 73 77 81 86 95 96 110
b 36 22 73 77 81 86 95 97 110
b 37 15 22 73 81 86 95 97 110
b 38 11 15 22 73 86 95 97 110
b 39 11 15 22 37 73 86 95 110
b 40 11 25 37 73 110
b 41 22 37 40 86 95
b 42 15 22 37 63 86 95
b 43 11 22 70 86 95
b 44 11 15 73 76 110
b 45 11 22 86 91 95 97
b 46 15 22 60 81 86 95
b 47 15 62 73 97 110
b 48 22 46 77 86 95 97
b 49 73 74 81 97 110
b 50 2 22 71 81 86 95
b 51 73 77 81 96 110 111
b 52 12 21 22 73 86 92 95 110
b 53 4 12 73 92 110
b 54 12 22 73 86 92 95 101 110
b 55 12 22 33 73 86 95 101 110
b 56 22 33 45 73 86 95 101 110
b 57 17 22 33 45 73 86 95 110
b 58 17 22 45 49 73 86 95 110
b 59 5 17 49 73 95 110
b 60 17 22 32 33 86 95
b 61 17 45 73 99 110
b 62 14 22 45 86 95 101
b 63 33 45 73 75 110
b 64 33 39 73 101 110
b 65 12 22 33 84 86 95
b 66 6 12 73 101 110
b 67 22 57 86 92 95 101
b 68 9 22 73 95 110
b 69 9 73 89 110
b 70 22 28 30 41 73 86 95 110
b 71 10 28 30 73 110
b 72 23 28 41 73 110
b 73 22 28 41 73 86 95 105 110
b 74 22 41 54 73 86 95 105 110
b 75 22 34 41 54 86 95
b 76 22 36 54 73 86 95 105 110
b 77 22 36 52 86 95 105 110
b 78 22 52 58 86 95
b 79 22 52 86 95 102 105
b 80 22 47 54 86 95
b 81 54 66 73 105 110
b 82 35 41 73 105 110
b 83 22 28 79 86 95 105
b 84 22 28 30 38 73 86 95 110
b 85 30 38 43 73 95 110
b 86 22 30 41 64 86 95
b 87 1 18 21 73 92 95 110
b 88 18 42 73 92 110
b 89 22 27 73 95 110
b 90 27 44 73 110
b 91 22 50 86 92 95
b 92 5 51 73 110
b 93 43 73 82 110
b 94 26 30 43 73 110
b 95 9 22 56 110
b 96 22 27 83 95
b 97 5 17 73 100 110
b 98 110
1 4
2 69
3 98
4 90
5 6
6 96
7 14
8 69
9 18
10 32
11 51
12 33
13 98
13 14
13 52
13 68
13 70
13 87
13 89
13 91
14 15
14 31
14 34
15 16
15 27
15 30
16 17
16 25
16 26
17 18
17 22
17 23
17 24
18 19
19 20
20 21
27 28
28 29
31 32
32 33
34 35
35 36
35 50
35 51
36 37
36 48
36 49
37 38
37 46
37 47
38 39
38 43
38 44
38 45
39 40
39 41
39 42
52 53
52 54
54 55
54 66
54 67
55 56
55 64
55 65
56 57
56 62
56 63
57 58
57 60
57 61
58 59
59 92
59 97
68 95
68 69
70 71
70 72
70 73
70 84
70 86
73 74
73 82
73 83
74 75
74 76
74 80
74 81
76 77
77 78
77 79
84 85
85 93
85 94
87 88
89 96
89 90
